words_hard_train/7309.qaiger
aag 115 16 0 1 99
2
4
12
14
36
44
72
74
82
86
90
94
104
108
112
116
231
6 3 4
8 2 5
10 7 9
16 12 14
18 13 15
20 17 19
22 11 21
24 10 20
26 23 25
28 26 12
30 28 3
32 31 25
34 9 5
38 35 36
40 34 37
42 39 41
46 19 44
48 18 45
50 47 49
52 42 51
54 43 50
56 53 55
58 32 57
60 33 56
62 59 61
64 27 2
66 64 13
68 67 31
70 63 69
76 72 75
78 73 74
80 77 79
84 48 83
88 84 87
92 88 91
96 92 95
98 80 97
100 81 96
102 99 101
106 40 105
110 106 109
114 110 113
118 114 117
120 103 119
122 102 118
124 121 123
126 61 55
128 41 104
130 129 107
132 49 82
134 133 85
136 130 135
138 131 134
140 137 139
142 127 140
144 143 139
146 107 108
148 147 111
150 85 86
152 151 89
154 148 153
156 149 152
158 155 157
160 145 158
162 161 157
164 111 112
166 165 115
168 89 90
170 169 93
172 166 171
174 167 170
176 173 175
178 163 176
180 179 175
182 115 116
184 183 119
186 93 94
188 187 97
190 184 189
192 185 188
194 191 193
196 181 194
198 197 193
200 125 199
202 70 201
204 126 141
206 205 143
208 144 159
210 209 161
212 207 211
214 162 177
216 215 179
218 212 217
220 180 195
222 221 197
224 218 223
226 124 198
228 224 227
230 202 228
i0 1 x1[0]
i1 1 x1[1]
i2 2 y2[0]
i3 2 y2[1]
i4 1 x1[2]
i5 2 y2[2]
i6 1 x1[7]
i7 2 y2[7]
i8 2 y2[3]
i9 2 y2[4]
i10 2 y2[5]
i11 2 y2[6]
i12 1 x1[3]
i13 1 x1[4]
i14 1 x1[5]
i15 1 x1[6]
o0 bool[0]
c
simplified
  !=
    reverse
      1
    subtract
      subtract
        1 x1
        1
      2 y2
