words_hard_train/7309.qaiger.qdimacs
p cnf 115 298
a 1 2 36 18 52 54 56 58 0
e 3 4 5 6 7 8 9 10 11 12 13 14 15 16 17 19 20 21 22 23 24 25 26 27 28 29 30 31 32 33 34 35 37 38 39 40 41 42 43 44 45 46 47 48 49 50 51 53 55 57 59 60 61 62 63 64 65 66 67 68 69 70 71 72 73 74 75 76 77 78 79 80 81 82 83 84 85 86 87 88 89 90 91 92 93 94 95 96 97 98 99 100 101 102 103 104 105 106 107 108 109 110 111 112 113 114 115 0
1 -2 3 0
-1 -3 0
2 -3 0
-1 2 4 0
1 -4 0
-2 -4 0
3 4 5 0
-3 -5 0
-4 -5 0
-6 -7 8 0
6 -8 0
7 -8 0
6 7 9 0
-6 -9 0
-7 -9 0
8 9 10 0
-8 -10 0
-9 -10 0
5 10 11 0
-5 -11 0
-10 -11 0
-5 -10 12 0
5 -12 0
10 -12 0
11 12 13 0
-11 -13 0
-12 -13 0
-13 -6 14 0
13 -14 0
6 -14 0
-14 1 15 0
14 -15 0
-1 -15 0
15 12 16 0
-15 -16 0
-12 -16 0
4 2 17 0
-4 -17 0
-2 -17 0
17 -18 19 0
-17 -19 0
18 -19 0
-17 18 20 0
17 -20 0
-18 -20 0
19 20 21 0
-19 -21 0
-20 -21 0
9 -22 23 0
-9 -23 0
22 -23 0
-9 22 24 0
9 -24 0
-22 -24 0
23 24 25 0
-23 -25 0
-24 -25 0
-21 25 26 0
21 -26 0
-25 -26 0
21 -25 27 0
-21 -27 0
25 -27 0
26 27 28 0
-26 -28 0
-27 -28 0
-16 28 29 0
16 -29 0
-28 -29 0
16 -28 30 0
-16 -30 0
28 -30 0
29 30 31 0
-29 -31 0
-30 -31 0
13 -1 32 0
-13 -32 0
1 -32 0
-32 6 33 0
32 -33 0
-6 -33 0
33 15 34 0
-33 -34 0
-15 -34 0
31 34 35 0
-31 -35 0
-34 -35 0
-36 37 38 0
36 -38 0
-37 -38 0
36 -37 39 0
-36 -39 0
37 -39 0
38 39 40 0
-38 -40 0
-39 -40 0
-24 41 42 0
24 -42 0
-41 -42 0
-42 43 44 0
42 -44 0
-43 -44 0
-44 45 46 0
44 -46 0
-45 -46 0
-46 47 48 0
46 -48 0
-47 -48 0
-40 48 49 0
40 -49 0
-48 -49 0
40 -48 50 0
-40 -50 0
48 -50 0
49 50 51 0
-49 -51 0
-50 -51 0
-20 52 53 0
20 -53 0
-52 -53 0
-53 54 55 0
53 -55 0
-54 -55 0
-55 56 57 0
55 -57 0
-56 -57 0
-57 58 59 0
57 -59 0
-58 -59 0
51 59 60 0
-51 -60 0
-59 -60 0
-51 -59 61 0
51 -61 0
59 -61 0
60 61 62 0
-60 -62 0
-61 -62 0
30 27 63 0
-30 -63 0
-27 -63 0
20 -52 64 0
-20 -64 0
52 -64 0
64 53 65 0
-64 -65 0
-53 -65 0
24 -41 66 0
-24 -66 0
41 -66 0
66 42 67 0
-66 -67 0
-42 -67 0
-65 67 68 0
65 -68 0
-67 -68 0
65 -67 69 0
-65 -69 0
67 -69 0
68 69 70 0
-68 -70 0
-69 -70 0
63 -70 71 0
-63 -71 0
70 -71 0
71 69 72 0
-71 -72 0
-69 -72 0
53 -54 73 0
-53 -73 0
54 -73 0
73 55 74 0
-73 -74 0
-55 -74 0
42 -43 75 0
-42 -75 0
43 -75 0
75 44 76 0
-75 -76 0
-44 -76 0
-74 76 77 0
74 -77 0
-76 -77 0
74 -76 78 0
-74 -78 0
76 -78 0
77 78 79 0
-77 -79 0
-78 -79 0
72 -79 80 0
-72 -80 0
79 -80 0
80 78 81 0
-80 -81 0
-78 -81 0
55 -56 82 0
-55 -82 0
56 -82 0
82 57 83 0
-82 -83 0
-57 -83 0
44 -45 84 0
-44 -84 0
45 -84 0
84 46 85 0
-84 -85 0
-46 -85 0
-83 85 86 0
83 -86 0
-85 -86 0
83 -85 87 0
-83 -87 0
85 -87 0
86 87 88 0
-86 -88 0
-87 -88 0
81 -88 89 0
-81 -89 0
88 -89 0
89 87 90 0
-89 -90 0
-87 -90 0
57 -58 91 0
-57 -91 0
58 -91 0
91 59 92 0
-91 -92 0
-59 -92 0
46 -47 93 0
-46 -93 0
47 -93 0
93 48 94 0
-93 -94 0
-48 -94 0
-92 94 95 0
92 -95 0
-94 -95 0
92 -94 96 0
-92 -96 0
94 -96 0
95 96 97 0
-95 -97 0
-96 -97 0
90 -97 98 0
-90 -98 0
97 -98 0
98 96 99 0
-98 -99 0
-96 -99 0
62 99 100 0
-62 -100 0
-99 -100 0
-35 100 101 0
35 -101 0
-100 -101 0
-63 70 102 0
63 -102 0
-70 -102 0
102 71 103 0
-102 -103 0
-71 -103 0
-72 79 104 0
72 -104 0
-79 -104 0
104 80 105 0
-104 -105 0
-80 -105 0
103 105 106 0
-103 -106 0
-105 -106 0
-81 88 107 0
81 -107 0
-88 -107 0
107 89 108 0
-107 -108 0
-89 -108 0
-106 108 109 0
106 -109 0
-108 -109 0
-90 97 110 0
90 -110 0
-97 -110 0
110 98 111 0
-110 -111 0
-98 -111 0
-109 111 112 0
109 -112 0
-111 -112 0
-62 -99 113 0
62 -113 0
99 -113 0
-112 113 114 0
112 -114 0
-113 -114 0
-101 -114 115 0
101 -115 0
114 -115 0
-115 0
